 $CONTRL SCFTYP=ROHF RUNTYP=OPTIMIZE EXETYP=RUN MPLEVL=2 MAXIT=200 MULT=2
    ISPHER=1 COORD=UNIQUE NOSYM=1 UNITS=ANGS PP=READ $END
 $GUESS GUESS=HUCKEL $END
 $SYSTEM MWORDS=40 MEMDDI=20  $END
 $SCF DIRSCF=.FALSE. $END
 $DATA 
titulo
C1
 Na   11   3.4742174069   0.0049304921   1.9625091008
S   2
  1      0.4972000             -0.2753574
  2      0.0560000              1.0989969
S   1
  1      0.0221000              1.0000000
P   2
  1      0.6697000             -0.0683845
  2      0.0636000              1.0140550
P   1
  1      0.0204000              1.0000000

 Li    3   0.0000015203  -0.0049317239  -0.1725216539
S   7
  1    921.3000000              0.0013670        
  2    138.7000000              0.0104250        
  3     31.9400000              0.0498590        
  4      9.3530000              0.1607010        
  5      3.1580000              0.3446040        
  6      1.1570000              0.4251970        
  7      0.4446000              0.1694680        
S   2
  1      0.4446000             -0.2223110        
  2      0.0766600              1.1164770        
S   1
  1      0.0286400              1.0000000        
P   3
  1      1.4880000              0.0387700        
  2      0.2667000              0.2362570        
  3      0.0720100              0.8304480        
P   1
  1      0.0237000              1.0000000

 Li    3   0.0000015203  -0.0049317239  -0.1725216539
S   7
  1    921.3000000              0.0013670        
  2    138.7000000              0.0104250        
  3     31.9400000              0.0498590        
  4      9.3530000              0.1607010        
  5      3.1580000              0.3446040        
  6      1.1570000              0.4251970        
  7      0.4446000              0.1694680        
S   2
  1      0.4446000             -0.2223110        
  2      0.0766600              1.1164770        
S   1
  1      0.0286400              1.0000000        
P   3
  1      1.4880000              0.0387700        
  2      0.2667000              0.2362570        
  3      0.0720100              0.8304480        
P   1
  1      0.0237000              1.0000000

 $END
 $ECP 
 Na-ECP GEN     10     2
  5      ----- d-ul potential     -----
    -10.0000000        1    175.5502590
    -47.4902024        2     35.0516791
    -17.2283007        2      7.9060270
     -6.0637782        2      2.3365719
     -0.7299393        2      0.7799867
  5      ----- s-ul potential     -----
      3.0000000        0    243.3605846
     36.2847626        1     41.5764759
     72.9304880        2     13.2649167
     23.8401151        2      3.6797165
      6.0123861        2      0.9764209
  6      ----- p-ul potential     -----
      5.0000000        0   1257.2650682
    117.4495683        1    189.6248810
    423.3986704        2     54.5247759
    109.3247297        2     13.7449955
     31.3701656        2      3.6813579
      7.1241813        2      0.9461106
 Li-ECP NONE
 Li-ECP NONE
 $END


